words_hard_train/9490.qaiger
aag 109 24 0 1 85
2
4
8
12
18
24
28
32
38
42
50
58
60
64
68
72
88
100
112
120
152
160
180
188
219
6 3 4
10 8 4
14 11 13
16 15 4
20 17 19
22 21 4
26 23 25
30 26 29
34 30 33
36 6 34
40 37 38
44 40 43
46 27 4
48 47 28
52 49 50
54 46 29
56 52 55
62 59 61
66 62 65
70 66 69
74 71 72
76 70 73
78 75 77
80 56 78
82 67 68
84 22 24
86 85 27
90 87 88
92 83 90
94 92 71
96 16 18
98 97 21
102 99 100
104 103 60
106 105 67
108 10 12
110 109 15
114 111 112
116 115 64
118 114 65
122 120 9
124 123 58
126 119 124
128 117 127
130 102 61
132 129 131
134 106 133
136 91 68
138 134 137
140 95 139
142 57 79
144 141 143
146 81 145
148 31 4
150 149 32
154 151 152
156 148 33
158 154 157
162 77 160
164 76 161
166 163 165
168 158 166
170 146 169
172 159 167
174 171 173
176 35 4
178 177 2
182 179 180
184 6 35
186 182 185
190 165 188
192 164 189
194 191 193
196 187 195
198 174 197
200 198 192
202 44 201
204 41 42
206 205 198
208 186 191
210 205 209
212 210 193
214 213 201
216 207 215
218 203 217
i0 1 x1[6]
i1 1 x1[7]
i2 1 x1[0]
i3 1 x1[1]
i4 1 x1[2]
i5 1 x1[3]
i6 1 x1[4]
i7 1 x1[5]
i8 2 y2[7]
i9 2 y1[7]
i10 2 y2[4]
i11 2 y1[0]
i12 2 y1[2]
i13 2 y1[1]
i14 2 y1[3]
i15 2 y1[4]
i16 2 y2[3]
i17 2 y2[2]
i18 2 y2[1]
i19 2 y2[0]
i20 2 y2[5]
i21 2 y1[5]
i22 2 y2[6]
i23 2 y1[6]
o0 bv[0]
c
simplified
  >
    2 y1
    subtract
      2 y2
      and
        2 y2
        abs
          1 x1
