words_hard_train/9490.qaiger.qdimacs
p cnf 109 256
a 1 2 4 6 9 12 14 16 0
e 3 5 7 8 10 11 13 15 17 18 19 20 21 22 23 24 25 26 27 28 29 30 31 32 33 34 35 36 37 38 39 40 41 42 43 44 45 46 47 48 49 50 51 52 53 54 55 56 57 58 59 60 61 62 63 64 65 66 67 68 69 70 71 72 73 74 75 76 77 78 79 80 81 82 83 84 85 86 87 88 89 90 91 92 93 94 95 96 97 98 99 100 101 102 103 104 105 106 107 108 109 0
1 -2 3 0
-1 -3 0
2 -3 0
-4 -2 5 0
4 -5 0
2 -5 0
5 6 7 0
-5 -7 0
-6 -7 0
7 -2 8 0
-7 -8 0
2 -8 0
8 9 10 0
-8 -10 0
-9 -10 0
10 -2 11 0
-10 -11 0
2 -11 0
11 12 13 0
-11 -13 0
-12 -13 0
-13 14 15 0
13 -15 0
-14 -15 0
-15 16 17 0
15 -17 0
-16 -17 0
-3 -17 18 0
3 -18 0
17 -18 0
18 -19 20 0
-18 -20 0
19 -20 0
-20 21 22 0
20 -22 0
-21 -22 0
13 -2 23 0
-13 -23 0
2 -23 0
23 -14 24 0
-23 -24 0
14 -24 0
24 -25 26 0
-24 -26 0
25 -26 0
-23 14 27 0
23 -27 0
-14 -27 0
-26 27 28 0
26 -28 0
-27 -28 0
29 30 31 0
-29 -31 0
-30 -31 0
-31 32 33 0
31 -33 0
-32 -33 0
-33 34 35 0
33 -35 0
-34 -35 0
35 -36 37 0
-35 -37 0
36 -37 0
-35 36 38 0
35 -38 0
-36 -38 0
37 38 39 0
-37 -39 0
-38 -39 0
-28 -39 40 0
28 -40 0
39 -40 0
33 -34 41 0
-33 -41 0
34 -41 0
-11 -12 42 0
11 -42 0
12 -42 0
42 13 43 0
-42 -43 0
-13 -43 0
43 -44 45 0
-43 -45 0
44 -45 0
41 -45 46 0
-41 -46 0
45 -46 0
-46 35 47 0
46 -47 0
-35 -47 0
-8 -9 48 0
8 -48 0
9 -48 0
48 10 49 0
-48 -49 0
-10 -49 0
49 -50 51 0
-49 -51 0
50 -51 0
51 -30 52 0
-51 -52 0
30 -52 0
52 33 53 0
-52 -53 0
-33 -53 0
-5 -6 54 0
5 -54 0
6 -54 0
54 7 55 0
-54 -55 0
-7 -55 0
55 -56 57 0
-55 -57 0
56 -57 0
57 -32 58 0
-57 -58 0
32 -58 0
-57 32 59 0
57 -59 0
-32 -59 0
-60 4 61 0
60 -61 0
-4 -61 0
61 -29 62 0
-61 -62 0
29 -62 0
59 -62 63 0
-59 -63 0
62 -63 0
58 63 64 0
-58 -64 0
-63 -64 0
-51 30 65 0
51 -65 0
-30 -65 0
64 65 66 0
-64 -66 0
-65 -66 0
-53 66 67 0
53 -67 0
-66 -67 0
45 -34 68 0
-45 -68 0
34 -68 0
-67 68 69 0
67 -69 0
-68 -69 0
47 69 70 0
-47 -70 0
-69 -70 0
28 39 71 0
-28 -71 0
-39 -71 0
70 71 72 0
-70 -72 0
-71 -72 0
40 72 73 0
-40 -73 0
-72 -73 0
15 -2 74 0
-15 -74 0
2 -74 0
74 -16 75 0
-74 -75 0
16 -75 0
75 -76 77 0
-75 -77 0
76 -77 0
-74 16 78 0
74 -78 0
-16 -78 0
-77 78 79 0
77 -79 0
-78 -79 0
38 -80 81 0
-38 -81 0
80 -81 0
-38 80 82 0
38 -82 0
-80 -82 0
81 82 83 0
-81 -83 0
-82 -83 0
-79 -83 84 0
79 -84 0
83 -84 0
-73 84 85 0
73 -85 0
-84 -85 0
79 83 86 0
-79 -86 0
-83 -86 0
85 86 87 0
-85 -87 0
-86 -87 0
17 -2 88 0
-17 -88 0
2 -88 0
88 -1 89 0
-88 -89 0
1 -89 0
89 -90 91 0
-89 -91 0
90 -91 0
-3 17 92 0
3 -92 0
-17 -92 0
-91 92 93 0
91 -93 0
-92 -93 0
82 -94 95 0
-82 -95 0
94 -95 0
-82 94 96 0
82 -96 0
-94 -96 0
95 96 97 0
-95 -97 0
-96 -97 0
93 97 98 0
-93 -98 0
-97 -98 0
-87 98 99 0
87 -99 0
-98 -99 0
-99 -96 100 0
99 -100 0
96 -100 0
-22 100 101 0
22 -101 0
-100 -101 0
20 -21 102 0
-20 -102 0
21 -102 0
102 -99 103 0
-102 -103 0
99 -103 0
-93 95 104 0
93 -104 0
-95 -104 0
102 104 105 0
-102 -105 0
-104 -105 0
-105 96 106 0
105 -106 0
-96 -106 0
106 100 107 0
-106 -107 0
-100 -107 0
103 107 108 0
-103 -108 0
-107 -108 0
101 108 109 0
-101 -109 0
-108 -109 0
-109 0
